Maximize
F - f1 - f2

Subject to
F - 8y8 - 8y158 - 6y249 - 8y44 - 6y125 - 8y5 - 8y61 - 2y134 - 4y238 - 4y217 - 6y176 - 4y20 - 8y254 - 6y210 - 4y255 - 2y111 - 6y56 - 4y233 = 0
f1 - 0.006785s8 - 0.006785s158 - 0.006785s249 - 0.006785s44 - 0.006785s125 - 0.006785s5 - 0.006785s61 - 0.006785s134 - 0.006785s238 - 0.006785s217 - 0.006785s176 - 0.006785s20 - 0.006785s254 - 0.006785s210 - 0.006785s255 - 0.006785s111 - 0.006785s56 - 0.006785s233  = 0
f2 - 2.48y8 - 1.88y158 - 2.06y249 - 2.25y44 - 1.60y125 - 1.33y5 - 1.27y61 - 0.92y134 - 0.85y238 - 2.75y217 - 0.76y176 - 0.59y20 - 1.65y254 - 0.58y210 - 0.79y255 - 1.24y111 - 0.13y56 - 0.01y233 = 0

x53x134x1 + x53x238x1 + x53x255x1 + x53x233x1 
<= 2
x148x5x1 + x148x134x1 + x148x238x1 + x148x255x1 + x148x233x1 
<= 1
x159x134x1 + x159x238x1 + x159x255x1 + x159x233x1 
<= 1
x172x5x1 + x172x134x1 + x172x238x1 + x172x255x1 + x172x233x1 
<= 1
x122x44x1 + x122x5x1 + x122x134x1 + x122x238x1 + x122x255x1 + x122x233x1 
<= 1
x95x44x1 + x95x5x1 + x95x134x1 + x95x238x1 + x95x255x1 + x95x233x1 
<= 1
x38x44x1 + x38x5x1 + x38x134x1 + x38x238x1 + x38x255x1 + x38x233x1 
<= 2

x276x44x2 + x276x61x2 + x276x217x2 + x276x176x2 + x276x20x2 + x276x254x2 + x276x111x2 + x276x233x2 
<= 1
x48x217x2 + x48x176x2 + x48x20x2 + x48x254x2 + x48x111x2 + x48x233x2 
<= 2
x57x254x2 + x57x111x2 + x57x233x2 
<= 1
x129x254x2 + x129x111x2 + x129x233x2 
<= 2
x100x254x2 + x100x111x2 + x100x233x2 
<= 2
x175x254x2 + x175x111x2 + x175x233x2 
<= 1
x26x125x3 + x26x5x3 + x26x217x3 + x26x176x3 + x26x254x3 + x26x210x3 + x26x255x3 + x26x111x3 + x26x56x3 
<= 2
x148x125x3 + x148x5x3 + x148x217x3 + x148x176x3 + x148x254x3 + x148x210x3 + x148x255x3 + x148x111x3 + x148x56x3 
<= 1
x159x217x3 + x159x176x3 + x159x254x3 + x159x210x3 + x159x255x3 + x159x111x3 + x159x56x3 
<= 1
x276x125x3 + x276x5x3 + x276x217x3 + x276x176x3 + x276x254x3 + x276x210x3 + x276x255x3 + x276x111x3 + x276x56x3 
<= 1
x57x254x3 + x57x210x3 + x57x255x3 + x57x111x3 + x57x56x3 
<= 1
x172x125x3 + x172x5x3 + x172x217x3 + x172x176x3 + x172x254x3 + x172x210x3 + x172x255x3 + x172x111x3 + x172x56x3 
<= 1
x175x254x3 + x175x210x3 + x175x255x3 + x175x111x3 + x175x56x3 
<= 1
x122x158x3 + x122x249x3 + x122x125x3 + x122x5x3 + x122x217x3 + x122x176x3 + x122x254x3 + x122x210x3 + x122x255x3 + x122x111x3 + x122x56x3 
<= 1


- x8x44x2 - x8x61x2 - x8x217x2 - x8x176x2 - x8x20x2 - x8x254x2 - x8x111x2 - x8x233x2 
= 0




- x158x61x2 - x158x217x2 - x158x176x2 - x158x20x2 - x158x254x2 - x158x111x2 - x158x233x2 
= 0
x122x158x3 
- x158x0x3
- x158x125x3 - x158x5x3 - x158x217x3 - x158x176x3 - x158x254x3 - x158x210x3 - x158x255x3 - x158x111x3 - x158x56x3 
= 0



x122x249x3 
- x249x0x3
- x249x125x3 - x249x5x3 - x249x217x3 - x249x176x3 - x249x254x3 - x249x210x3 - x249x255x3 - x249x111x3 - x249x56x3 
= 0

x122x44x1 + x95x44x1 + x38x44x1 
- x44x0x1
- x44x5x1 - x44x134x1 - x44x238x1 - x44x255x1 - x44x233x1 
= 0
x276x44x2 + x8x44x2 
- x44x0x2
- x44x61x2 - x44x217x2 - x44x176x2 - x44x20x2 - x44x254x2 - x44x111x2 - x44x233x2 
= 0




x26x125x3 + x148x125x3 + x276x125x3 + x172x125x3 + x122x125x3 + x158x125x3 + x249x125x3 
- x125x0x3
- x125x5x3 - x125x217x3 - x125x176x3 - x125x254x3 - x125x210x3 - x125x255x3 - x125x111x3 - x125x56x3 
= 0

x148x5x1 + x172x5x1 + x122x5x1 + x95x5x1 + x38x5x1 + x44x5x1 
- x5x0x1
- x5x134x1 - x5x238x1 - x5x255x1 - x5x233x1 
= 0

x26x5x3 + x148x5x3 + x276x5x3 + x172x5x3 + x122x5x3 + x158x5x3 + x249x5x3 + x125x5x3 
- x5x0x3
- x5x217x3 - x5x176x3 - x5x254x3 - x5x210x3 - x5x255x3 - x5x111x3 - x5x56x3 
= 0


x276x61x2 + x8x61x2 + x158x61x2 + x44x61x2 
- x61x0x2
- x61x176x2 - x61x20x2 - x61x254x2 - x61x111x2 - x61x233x2 
= 0


x53x134x1 + x148x134x1 + x159x134x1 + x172x134x1 + x122x134x1 + x95x134x1 + x38x134x1 + x44x134x1 + x5x134x1 
- x134x0x1
- x134x255x1 - x134x233x1 
= 0



x53x238x1 + x148x238x1 + x159x238x1 + x172x238x1 + x122x238x1 + x95x238x1 + x38x238x1 + x44x238x1 + x5x238x1 
- x238x0x1
- x238x255x1 - x238x233x1 
= 0




x276x217x2 + x48x217x2 + x8x217x2 + x158x217x2 + x44x217x2 
- x217x0x2
- x217x254x2 - x217x111x2 - x217x233x2 
= 0
x26x217x3 + x148x217x3 + x159x217x3 + x276x217x3 + x172x217x3 + x122x217x3 + x158x217x3 + x249x217x3 + x125x217x3 + x5x217x3 
- x217x0x3
- x217x254x3 - x217x210x3 - x217x255x3 - x217x111x3 - x217x56x3 
= 0


x276x176x2 + x48x176x2 + x8x176x2 + x158x176x2 + x44x176x2 + x61x176x2 
- x176x0x2
- x176x233x2 
= 0
x26x176x3 + x148x176x3 + x159x176x3 + x276x176x3 + x172x176x3 + x122x176x3 + x158x176x3 + x249x176x3 + x125x176x3 + x5x176x3 
- x176x0x3
- x176x210x3 - x176x56x3 
= 0


x276x20x2 + x48x20x2 + x8x20x2 + x158x20x2 + x44x20x2 + x61x20x2 
- x20x0x2
- x20x111x2 - x20x233x2 
= 0



x276x254x2 + x48x254x2 + x57x254x2 + x129x254x2 + x100x254x2 + x175x254x2 + x8x254x2 + x158x254x2 + x44x254x2 + x61x254x2 + x217x254x2 
- x254x0x2
- x254x111x2 
= 0
x26x254x3 + x148x254x3 + x159x254x3 + x276x254x3 + x57x254x3 + x172x254x3 + x175x254x3 + x122x254x3 + x158x254x3 + x249x254x3 + x125x254x3 + x5x254x3 + x217x254x3 
- x254x0x3
- x254x255x3 - x254x111x3 
= 0



x26x210x3 + x148x210x3 + x159x210x3 + x276x210x3 + x57x210x3 + x172x210x3 + x175x210x3 + x122x210x3 + x158x210x3 + x249x210x3 + x125x210x3 + x5x210x3 + x217x210x3 + x176x210x3 
- x210x0x3

= 0

x53x255x1 + x148x255x1 + x159x255x1 + x172x255x1 + x122x255x1 + x95x255x1 + x38x255x1 + x44x255x1 + x5x255x1 + x134x255x1 + x238x255x1 
- x255x0x1

= 0

x26x255x3 + x148x255x3 + x159x255x3 + x276x255x3 + x57x255x3 + x172x255x3 + x175x255x3 + x122x255x3 + x158x255x3 + x249x255x3 + x125x255x3 + x5x255x3 + x217x255x3 + x254x255x3 
- x255x0x3

= 0


x276x111x2 + x48x111x2 + x57x111x2 + x129x111x2 + x100x111x2 + x175x111x2 + x8x111x2 + x158x111x2 + x44x111x2 + x61x111x2 + x217x111x2 + x20x111x2 + x254x111x2 
- x111x0x2

= 0
x26x111x3 + x148x111x3 + x159x111x3 + x276x111x3 + x57x111x3 + x172x111x3 + x175x111x3 + x122x111x3 + x158x111x3 + x249x111x3 + x125x111x3 + x5x111x3 + x217x111x3 + x254x111x3 
- x111x0x3

= 0



x26x56x3 + x148x56x3 + x159x56x3 + x276x56x3 + x57x56x3 + x172x56x3 + x175x56x3 + x122x56x3 + x158x56x3 + x249x56x3 + x125x56x3 + x5x56x3 + x217x56x3 + x176x56x3 
- x56x0x3

= 0

x53x233x1 + x148x233x1 + x159x233x1 + x172x233x1 + x122x233x1 + x95x233x1 + x38x233x1 + x44x233x1 + x5x233x1 + x134x233x1 + x238x233x1 
- x233x0x1

= 0
x276x233x2 + x48x233x2 + x57x233x2 + x129x233x2 + x100x233x2 + x175x233x2 + x8x233x2 + x158x233x2 + x44x233x2 + x61x233x2 + x217x233x2 + x176x233x2 + x20x233x2 
- x233x0x2

= 0


2y8 = 0
1y158 = 0
1y158 - x122x158x3 = 0
2y249 - x122x249x3 = 0
1y44 - x122x44x1 - x95x44x1 - x38x44x1 = 0
1y44 - x276x44x2 - x8x44x2 = 0
2y125 - x26x125x3 - x148x125x3 - x276x125x3 - x172x125x3 - x122x125x3 - x158x125x3 - x249x125x3 = 0
1y5 - x148x5x1 - x172x5x1 - x122x5x1 - x95x5x1 - x38x5x1 - x44x5x1 = 0
1y5 - x26x5x3 - x148x5x3 - x276x5x3 - x172x5x3 - x122x5x3 - x158x5x3 - x249x5x3 - x125x5x3 = 0
2y61 - x276x61x2 - x8x61x2 - x158x61x2 - x44x61x2 = 0
2y134 - x53x134x1 - x148x134x1 - x159x134x1 - x172x134x1 - x122x134x1 - x95x134x1 - x38x134x1 - x44x134x1 - x5x134x1 = 0
2y238 - x53x238x1 - x148x238x1 - x159x238x1 - x172x238x1 - x122x238x1 - x95x238x1 - x38x238x1 - x44x238x1 - x5x238x1 = 0
1y217 - x276x217x2 - x48x217x2 - x8x217x2 - x158x217x2 - x44x217x2 = 0
1y217 - x26x217x3 - x148x217x3 - x159x217x3 - x276x217x3 - x172x217x3 - x122x217x3 - x158x217x3 - x249x217x3 - x125x217x3 - x5x217x3 = 0
1y176 - x276x176x2 - x48x176x2 - x8x176x2 - x158x176x2 - x44x176x2 - x61x176x2 = 0
1y176 - x26x176x3 - x148x176x3 - x159x176x3 - x276x176x3 - x172x176x3 - x122x176x3 - x158x176x3 - x249x176x3 - x125x176x3 - x5x176x3 = 0
2y20 - x276x20x2 - x48x20x2 - x8x20x2 - x158x20x2 - x44x20x2 - x61x20x2 = 0
1y254 - x276x254x2 - x48x254x2 - x57x254x2 - x129x254x2 - x100x254x2 - x175x254x2 - x8x254x2 - x158x254x2 - x44x254x2 - x61x254x2 - x217x254x2 = 0
1y254 - x26x254x3 - x148x254x3 - x159x254x3 - x276x254x3 - x57x254x3 - x172x254x3 - x175x254x3 - x122x254x3 - x158x254x3 - x249x254x3 - x125x254x3 - x5x254x3 - x217x254x3 = 0
2y210 - x26x210x3 - x148x210x3 - x159x210x3 - x276x210x3 - x57x210x3 - x172x210x3 - x175x210x3 - x122x210x3 - x158x210x3 - x249x210x3 - x125x210x3 - x5x210x3 - x217x210x3 - x176x210x3 = 0
1y255 - x53x255x1 - x148x255x1 - x159x255x1 - x172x255x1 - x122x255x1 - x95x255x1 - x38x255x1 - x44x255x1 - x5x255x1 - x134x255x1 - x238x255x1 = 0
1y255 - x26x255x3 - x148x255x3 - x159x255x3 - x276x255x3 - x57x255x3 - x172x255x3 - x175x255x3 - x122x255x3 - x158x255x3 - x249x255x3 - x125x255x3 - x5x255x3 - x217x255x3 - x254x255x3 = 0
1y111 - x276x111x2 - x48x111x2 - x57x111x2 - x129x111x2 - x100x111x2 - x175x111x2 - x8x111x2 - x158x111x2 - x44x111x2 - x61x111x2 - x217x111x2 - x20x111x2 - x254x111x2 = 0
1y111 - x26x111x3 - x148x111x3 - x159x111x3 - x276x111x3 - x57x111x3 - x172x111x3 - x175x111x3 - x122x111x3 - x158x111x3 - x249x111x3 - x125x111x3 - x5x111x3 - x217x111x3 - x254x111x3 = 0
2y56 - x26x56x3 - x148x56x3 - x159x56x3 - x276x56x3 - x57x56x3 - x172x56x3 - x175x56x3 - x122x56x3 - x158x56x3 - x249x56x3 - x125x56x3 - x5x56x3 - x217x56x3 - x176x56x3 = 0
1y233 - x53x233x1 - x148x233x1 - x159x233x1 - x172x233x1 - x122x233x1 - x95x233x1 - x38x233x1 - x44x233x1 - x5x233x1 - x134x233x1 - x238x233x1 = 0
1y233 - x276x233x2 - x48x233x2 - x57x233x2 - x129x233x2 - x100x233x2 - x175x233x2 - x8x233x2 - x158x233x2 - x44x233x2 - x61x233x2 - x217x233x2 - x176x233x2 - x20x233x2 = 0

s26 - s125 + 7.748006z26z125z3 <= 6.36
s26 - s5 + 7.778746z26z5z3 <= 6.36
s26 - s217 + 7.731688z26z217z3 <= 6.36
s26 - s176 + 7.775933z26z176z3 <= 6.36
s26 - s254 + 7.882196z26z254z3 <= 6.36
s26 - s210 + 7.797624z26z210z3 <= 6.36
s26 - s255 + 8.003136z26z255z3 <= 6.36
s26 - s111 + 7.959459z26z111z3 <= 6.36
s26 - s56 + 7.924533z26z56z3 <= 6.36
s53 - s134 + 7.985875z53z134z1 <= 6.46
s53 - s238 + 7.957663z53z238z1 <= 6.46
s53 - s255 + 8.115350z53z255z1 <= 6.46
s53 - s233 + 8.176773z53z233z1 <= 6.46
s148 - s125 + 7.770365z148z125z3 <= 6.46
s148 - s5 + 7.795488z148z5z1 <= 6.46
s148 - s5 + 7.795488z148z5z3 <= 6.46
s148 - s134 + 7.865883z148z134z1 <= 6.46
s148 - s238 + 7.814290z148z238z1 <= 6.46
s148 - s217 + 7.806581z148z217z3 <= 6.46
s148 - s176 + 7.780583z148z176z3 <= 6.46
s148 - s254 + 7.921831z148z254z3 <= 6.46
s148 - s210 + 7.802989z148z210z3 <= 6.46
s148 - s255 + 8.027701z148z255z1 <= 6.46
s148 - s255 + 8.027701z148z255z3 <= 6.46
s148 - s111 + 7.992511z148z111z3 <= 6.46
s148 - s56 + 7.930209z148z56z3 <= 6.46
s148 - s233 + 8.051201z148z233z1 <= 6.46
s159 - s134 + 8.131340z159z134z1 <= 6.62
s159 - s238 + 8.107706z159z238z1 <= 6.62
s159 - s217 + 7.928949z159z217z3 <= 6.62
s159 - s176 + 8.103852z159z176z3 <= 6.62
s159 - s254 + 8.114299z159z254z3 <= 6.62
s159 - s210 + 8.130434z159z210z3 <= 6.62
s159 - s255 + 8.255545z159z255z1 <= 6.62
s159 - s255 + 8.255545z159z255z3 <= 6.62
s159 - s111 + 8.198640z159z111z3 <= 6.62
s159 - s56 + 8.229783z159z56z3 <= 6.62
s159 - s233 + 8.322148z159z233z1 <= 6.62
s276 - s44 + 7.506672z276z44z2 <= 6.32
s276 - s125 + 7.596906z276z125z3 <= 6.32
s276 - s5 + 7.630566z276z5z3 <= 6.32
s276 - s61 + 7.584612z276z61z2 <= 6.32
s276 - s217 + 7.593967z276z217z2 <= 6.32
s276 - s217 + 7.593967z276z217z3 <= 6.32
s276 - s176 + 7.663836z276z176z2 <= 6.32
s276 - s176 + 7.663836z276z176z3 <= 6.32
s276 - s20 + 7.816581z276z20z2 <= 6.32
s276 - s254 + 7.729423z276z254z2 <= 6.32
s276 - s254 + 7.729423z276z254z3 <= 6.32
s276 - s210 + 7.691064z276z210z3 <= 6.32
s276 - s255 + 7.850421z276z255z3 <= 6.32
s276 - s111 + 7.806064z276z111z2 <= 6.32
s276 - s111 + 7.806064z276z111z3 <= 6.32
s276 - s56 + 7.792479z276z56z3 <= 6.32
s276 - s233 + 7.895534z276z233z2 <= 6.32
s48 - s217 + 7.816494z48z217z2 <= 6.66
s48 - s176 + 8.046096z48z176z2 <= 6.66
s48 - s20 + 8.115166z48z20z2 <= 6.66
s48 - s254 + 7.986931z48z254z2 <= 6.66
s48 - s111 + 8.071203z48z111z2 <= 6.66
s48 - s233 + 8.208428z48z233z2 <= 6.66
s57 - s254 + 8.502954z57z254z2 <= 7.22
s57 - s254 + 8.502954z57z254z3 <= 7.22
s57 - s210 + 8.519829z57z210z3 <= 7.22
s57 - s255 + 8.615246z57z255z3 <= 7.22
s57 - s111 + 8.574516z57z111z2 <= 7.22
s57 - s111 + 8.574516z57z111z3 <= 7.22
s57 - s56 + 8.578587z57z56z3 <= 7.22
s57 - s233 + 8.664957z57z233z2 <= 7.22
s129 - s254 + 8.524480z129z254z2 <= 7.23
s129 - s111 + 8.592178z129z111z2 <= 7.23
s129 - s233 + 8.666863z129z233z2 <= 7.23
s172 - s125 + 7.741097z172z125z3 <= 6.61
s172 - s5 + 7.782261z172z5z1 <= 6.61
s172 - s5 + 7.782261z172z5z3 <= 6.61
s172 - s134 + 7.858105z172z134z1 <= 6.61
s172 - s238 + 7.850977z172z238z1 <= 6.61
s172 - s217 + 7.780496z172z217z3 <= 6.61
s172 - s176 + 7.891479z172z176z3 <= 6.61
s172 - s254 + 7.867505z172z254z3 <= 6.61
s172 - s210 + 7.924637z172z210z3 <= 6.61
s172 - s255 + 7.987978z172z255z1 <= 6.61
s172 - s255 + 7.987978z172z255z3 <= 6.61
s172 - s111 + 7.942432z172z111z3 <= 6.61
s172 - s56 + 7.971790z172z56z3 <= 6.61
s172 - s233 + 8.048344z172z233z1 <= 6.61
s100 - s254 + 8.525414z100z254z2 <= 7.26
s100 - s111 + 8.596442z100z111z2 <= 7.26
s100 - s233 + 8.689904z100z233z2 <= 7.26
s175 - s254 + 8.486656z175z254z2 <= 7.24
s175 - s254 + 8.486656z175z254z3 <= 7.24
s175 - s210 + 8.569099z175z210z3 <= 7.24
s175 - s255 + 8.610339z175z255z3 <= 7.24
s175 - s111 + 8.562716z175z111z2 <= 7.24
s175 - s111 + 8.562716z175z111z3 <= 7.24
s175 - s56 + 8.606639z175z56z3 <= 7.24
s175 - s233 + 8.676468z175z233z2 <= 7.24
s122 - s158 + 7.380288z122z158z3 <= 5.98
s122 - s249 + 7.434870z122z249z3 <= 5.98
s122 - s44 + 7.472835z122z44z1 <= 5.98
s122 - s125 + 7.487961z122z125z3 <= 5.98
s122 - s5 + 7.485325z122z5z1 <= 5.98
s122 - s5 + 7.485325z122z5z3 <= 5.98
s122 - s134 + 7.526468z122z134z1 <= 5.98
s122 - s238 + 7.435848z122z238z1 <= 5.98
s122 - s217 + 7.611420z122z217z3 <= 5.98
s122 - s176 + 7.326797z122z176z3 <= 5.98
s122 - s254 + 7.665005z122z254z3 <= 5.98
s122 - s210 + 7.318868z122z210z3 <= 5.98
s122 - s255 + 7.714991z122z255z1 <= 5.98
s122 - s255 + 7.714991z122z255z3 <= 5.98
s122 - s111 + 7.711714z122z111z3 <= 5.98
s122 - s56 + 7.500900z122z56z3 <= 5.98
s122 - s233 + 7.663672z122z233z1 <= 5.98
s95 - s44 + 7.271530z95z44z1 <= 5.78
s95 - s5 + 7.242298z95z5z1 <= 5.78
s95 - s134 + 7.266688z95z134z1 <= 5.78
s95 - s238 + 7.170927z95z238z1 <= 5.78
s95 - s255 + 7.453592z95z255z1 <= 5.78
s95 - s233 + 7.376210z95z233z1 <= 5.78
s38 - s44 + 6.706628z38z44z1 <= 4.94
s38 - s5 + 6.703841z38z5z1 <= 4.94
s38 - s134 + 6.733677z38z134z1 <= 4.94
s38 - s238 + 6.638397z38z238z1 <= 4.94
s38 - s255 + 6.921354z38z255z1 <= 4.94
s38 - s233 + 6.841353z38z233z1 <= 4.94
s8 - s44 + 8.508873z8z44z2 <= 7.47
s8 - s61 + 8.719087z8z61z2 <= 7.47
s8 - s217 + 8.605973z8z217z2 <= 7.47
s8 - s176 + 8.793110z8z176z2 <= 7.47
s8 - s20 + 8.832276z8z20z2 <= 7.47
s8 - s254 + 8.716666z8z254z2 <= 7.47
s8 - s111 + 8.796870z8z111z2 <= 7.47
s8 - s233 + 8.925680z8z233z2 <= 7.47
s158 - s125 + 8.596619z158z125z3 <= 7.48
s158 - s5 + 8.615973z158z5z3 <= 7.48
s158 - s61 + 8.598134z158z61z2 <= 7.48
s158 - s217 + 8.740086z158z217z2 <= 7.48
s158 - s217 + 8.740086z158z217z3 <= 7.48
s158 - s176 + 8.673793z158z176z2 <= 7.48
s158 - s176 + 8.673793z158z176z3 <= 7.48
s158 - s20 + 8.803385z158z20z2 <= 7.48
s158 - s254 + 8.767595z158z254z2 <= 7.48
s158 - s254 + 8.767595z158z254z3 <= 7.48
s158 - s210 + 8.706764z158z210z3 <= 7.48
s158 - s255 + 8.851423z158z255z3 <= 7.48
s158 - s111 + 8.825768z158z111z2 <= 7.48
s158 - s111 + 8.825768z158z111z3 <= 7.48
s158 - s56 + 8.772195z158z56z3 <= 7.48
s158 - s233 + 8.874743z158z233z2 <= 7.48
s249 - s125 + 8.573334z249z125z3 <= 7.48
s249 - s5 + 8.610979z249z5z3 <= 7.48
s249 - s217 + 8.680444z249z217z3 <= 7.48
s249 - s176 + 8.726666z249z176z3 <= 7.48
s249 - s254 + 8.722671z249z254z3 <= 7.48
s249 - s210 + 8.760397z249z210z3 <= 7.48
s249 - s255 + 8.827819z249z255z3 <= 7.48
s249 - s111 + 8.790126z249z111z3 <= 7.48
s249 - s56 + 8.798677z249z56z3 <= 7.48
s44 - s5 + 8.685493z44z5z1 <= 7.53
s44 - s61 + 8.752511z44z61z2 <= 7.53
s44 - s134 + 8.759589z44z134z1 <= 7.53
s44 - s238 + 8.766456z44z238z1 <= 7.53
s44 - s217 + 8.683478z44z217z2 <= 7.53
s44 - s176 + 8.823106z44z176z2 <= 7.53
s44 - s20 + 8.855577z44z20z2 <= 7.53
s44 - s254 + 8.753607z44z254z2 <= 7.53
s44 - s255 + 8.877691z44z255z1 <= 7.53
s44 - s111 + 8.829481z44z111z2 <= 7.53
s44 - s233 + 8.947506z44z233z1 <= 7.53
s44 - s233 + 8.947506z44z233z2 <= 7.53
s125 - s5 + 8.837140z125z5z3 <= 7.79
s125 - s217 + 9.016666z125z217z3 <= 7.79
s125 - s176 + 9.023714z125z176z3 <= 7.79
s125 - s254 + 8.967514z125z254z3 <= 7.79
s125 - s210 + 9.056750z125z210z3 <= 7.79
s125 - s255 + 9.047337z125z255z3 <= 7.79
s125 - s111 + 9.019396z125z111z3 <= 7.79
s125 - s56 + 9.040954z125z56z3 <= 7.79
s5 - s134 + 8.966011z5z134z1 <= 7.89
s5 - s238 + 8.991981z5z238z1 <= 7.89
s5 - s217 + 9.162111z5z217z3 <= 7.89
s5 - s176 + 9.095372z5z176z3 <= 7.89
s5 - s254 + 9.081949z5z254z3 <= 7.89
s5 - s210 + 9.126737z5z210z3 <= 7.89
s5 - s255 + 9.128513z5z255z1 <= 7.89
s5 - s255 + 9.128513z5z255z3 <= 7.89
s5 - s111 + 9.116470z5z111z3 <= 7.89
s5 - s56 + 9.094069z5z56z3 <= 7.89
s5 - s233 + 9.156834z5z233z1 <= 7.89
s61 - s176 + 9.030277z61z176z2 <= 7.95
s61 - s20 + 9.278296z61z20z2 <= 7.95
s61 - s254 + 9.310802z61z254z2 <= 7.95
s61 - s111 + 9.347772z61z111z2 <= 7.95
s61 - s233 + 9.318782z61z233z2 <= 7.95
s134 - s255 + 9.338797z134z255z1 <= 8.15
s134 - s233 + 9.340904z134z233z1 <= 8.15
s238 - s255 + 9.443000z238z255z1 <= 8.16
s238 - s233 + 9.403311z238z233z1 <= 8.16
s217 - s254 + 9.443437z217z254z2 <= 8.23
s217 - s254 + 9.443437z217z254z3 <= 8.23
s217 - s210 + 9.707260z217z210z3 <= 8.23
s217 - s255 + 9.605351z217z255z3 <= 8.23
s217 - s111 + 9.530813z217z111z2 <= 8.23
s217 - s111 + 9.530813z217z111z3 <= 8.23
s217 - s56 + 9.705207z217z56z3 <= 8.23
s217 - s233 + 9.726028z217z233z2 <= 8.23
s176 - s210 + 9.493994z176z210z3 <= 8.46
s176 - s56 + 9.637889z176z56z3 <= 8.46
s176 - s233 + 9.797112z176z233z2 <= 8.46
s20 - s111 + 9.650407z20z111z2 <= 8.50
s20 - s233 + 9.608525z20z233z2 <= 8.50
s254 - s255 + 9.703979z254z255z3 <= 8.54
s254 - s111 + 9.627687z254z111z2 <= 8.54
s254 - s111 + 9.627687z254z111z3 <= 8.54

x26x125x3 - 2z26z125z3 <= 0
x26x5x3 - 1z26z5z3 <= 0
x26x217x3 - 1z26z217z3 <= 0
x26x176x3 - 1z26z176z3 <= 0
x26x254x3 - 1z26z254z3 <= 0
x26x210x3 - 2z26z210z3 <= 0
x26x255x3 - 1z26z255z3 <= 0
x26x111x3 - 1z26z111z3 <= 0
x26x56x3 - 2z26z56z3 <= 0
x53x134x1 - 2z53z134z1 <= 0
x53x238x1 - 2z53z238z1 <= 0
x53x255x1 - 1z53z255z1 <= 0
x53x233x1 - 1z53z233z1 <= 0
x148x125x3 - 2z148z125z3 <= 0
x148x5x1 - 1z148z5z1 <= 0
x148x5x3 - 1z148z5z3 <= 0
x148x134x1 - 2z148z134z1 <= 0
x148x238x1 - 2z148z238z1 <= 0
x148x217x3 - 1z148z217z3 <= 0
x148x176x3 - 1z148z176z3 <= 0
x148x254x3 - 1z148z254z3 <= 0
x148x210x3 - 2z148z210z3 <= 0
x148x255x1 - 1z148z255z1 <= 0
x148x255x3 - 1z148z255z3 <= 0
x148x111x3 - 1z148z111z3 <= 0
x148x56x3 - 2z148z56z3 <= 0
x148x233x1 - 1z148z233z1 <= 0
x159x134x1 - 2z159z134z1 <= 0
x159x238x1 - 2z159z238z1 <= 0
x159x217x3 - 1z159z217z3 <= 0
x159x176x3 - 1z159z176z3 <= 0
x159x254x3 - 1z159z254z3 <= 0
x159x210x3 - 2z159z210z3 <= 0
x159x255x1 - 1z159z255z1 <= 0
x159x255x3 - 1z159z255z3 <= 0
x159x111x3 - 1z159z111z3 <= 0
x159x56x3 - 2z159z56z3 <= 0
x159x233x1 - 1z159z233z1 <= 0
x276x44x2 - 1z276z44z2 <= 0
x276x125x3 - 2z276z125z3 <= 0
x276x5x3 - 1z276z5z3 <= 0
x276x61x2 - 2z276z61z2 <= 0
x276x217x2 - 1z276z217z2 <= 0
x276x217x3 - 1z276z217z3 <= 0
x276x176x2 - 1z276z176z2 <= 0
x276x176x3 - 1z276z176z3 <= 0
x276x20x2 - 2z276z20z2 <= 0
x276x254x2 - 1z276z254z2 <= 0
x276x254x3 - 1z276z254z3 <= 0
x276x210x3 - 2z276z210z3 <= 0
x276x255x3 - 1z276z255z3 <= 0
x276x111x2 - 1z276z111z2 <= 0
x276x111x3 - 1z276z111z3 <= 0
x276x56x3 - 2z276z56z3 <= 0
x276x233x2 - 1z276z233z2 <= 0
x48x217x2 - 1z48z217z2 <= 0
x48x176x2 - 1z48z176z2 <= 0
x48x20x2 - 2z48z20z2 <= 0
x48x254x2 - 1z48z254z2 <= 0
x48x111x2 - 1z48z111z2 <= 0
x48x233x2 - 1z48z233z2 <= 0
x57x254x2 - 1z57z254z2 <= 0
x57x254x3 - 1z57z254z3 <= 0
x57x210x3 - 2z57z210z3 <= 0
x57x255x3 - 1z57z255z3 <= 0
x57x111x2 - 1z57z111z2 <= 0
x57x111x3 - 1z57z111z3 <= 0
x57x56x3 - 2z57z56z3 <= 0
x57x233x2 - 1z57z233z2 <= 0
x129x254x2 - 1z129z254z2 <= 0
x129x111x2 - 1z129z111z2 <= 0
x129x233x2 - 1z129z233z2 <= 0
x172x125x3 - 2z172z125z3 <= 0
x172x5x1 - 1z172z5z1 <= 0
x172x5x3 - 1z172z5z3 <= 0
x172x134x1 - 2z172z134z1 <= 0
x172x238x1 - 2z172z238z1 <= 0
x172x217x3 - 1z172z217z3 <= 0
x172x176x3 - 1z172z176z3 <= 0
x172x254x3 - 1z172z254z3 <= 0
x172x210x3 - 2z172z210z3 <= 0
x172x255x1 - 1z172z255z1 <= 0
x172x255x3 - 1z172z255z3 <= 0
x172x111x3 - 1z172z111z3 <= 0
x172x56x3 - 2z172z56z3 <= 0
x172x233x1 - 1z172z233z1 <= 0
x100x254x2 - 1z100z254z2 <= 0
x100x111x2 - 1z100z111z2 <= 0
x100x233x2 - 1z100z233z2 <= 0
x175x254x2 - 1z175z254z2 <= 0
x175x254x3 - 1z175z254z3 <= 0
x175x210x3 - 2z175z210z3 <= 0
x175x255x3 - 1z175z255z3 <= 0
x175x111x2 - 1z175z111z2 <= 0
x175x111x3 - 1z175z111z3 <= 0
x175x56x3 - 2z175z56z3 <= 0
x175x233x2 - 1z175z233z2 <= 0
x122x158x3 - 1z122z158z3 <= 0
x122x249x3 - 2z122z249z3 <= 0
x122x44x1 - 1z122z44z1 <= 0
x122x125x3 - 2z122z125z3 <= 0
x122x5x1 - 1z122z5z1 <= 0
x122x5x3 - 1z122z5z3 <= 0
x122x134x1 - 2z122z134z1 <= 0
x122x238x1 - 2z122z238z1 <= 0
x122x217x3 - 1z122z217z3 <= 0
x122x176x3 - 1z122z176z3 <= 0
x122x254x3 - 1z122z254z3 <= 0
x122x210x3 - 2z122z210z3 <= 0
x122x255x1 - 1z122z255z1 <= 0
x122x255x3 - 1z122z255z3 <= 0
x122x111x3 - 1z122z111z3 <= 0
x122x56x3 - 2z122z56z3 <= 0
x122x233x1 - 1z122z233z1 <= 0
x95x44x1 - 1z95z44z1 <= 0
x95x5x1 - 1z95z5z1 <= 0
x95x134x1 - 2z95z134z1 <= 0
x95x238x1 - 2z95z238z1 <= 0
x95x255x1 - 1z95z255z1 <= 0
x95x233x1 - 1z95z233z1 <= 0
x38x44x1 - 1z38z44z1 <= 0
x38x5x1 - 1z38z5z1 <= 0
x38x134x1 - 2z38z134z1 <= 0
x38x238x1 - 2z38z238z1 <= 0
x38x255x1 - 1z38z255z1 <= 0
x38x233x1 - 1z38z233z1 <= 0
x8x44x2 - 1z8z44z2 <= 0
x8x61x2 - 2z8z61z2 <= 0
x8x217x2 - 1z8z217z2 <= 0
x8x176x2 - 1z8z176z2 <= 0
x8x20x2 - 2z8z20z2 <= 0
x8x254x2 - 1z8z254z2 <= 0
x8x111x2 - 1z8z111z2 <= 0
x8x233x2 - 1z8z233z2 <= 0
x8x0x2 <= 2
x158x125x3 - 2z158z125z3 <= 0
x158x5x3 - 1z158z5z3 <= 0
x158x61x2 - 2z158z61z2 <= 0
x158x217x2 - 1z158z217z2 <= 0
x158x217x3 - 1z158z217z3 <= 0
x158x176x2 - 1z158z176z2 <= 0
x158x176x3 - 1z158z176z3 <= 0
x158x20x2 - 2z158z20z2 <= 0
x158x254x2 - 1z158z254z2 <= 0
x158x254x3 - 1z158z254z3 <= 0
x158x210x3 - 2z158z210z3 <= 0
x158x255x3 - 1z158z255z3 <= 0
x158x111x2 - 1z158z111z2 <= 0
x158x111x3 - 1z158z111z3 <= 0
x158x56x3 - 2z158z56z3 <= 0
x158x233x2 - 1z158z233z2 <= 0
x158x0x2 <= 1
x158x0x3 <= 1
x249x125x3 - 2z249z125z3 <= 0
x249x5x3 - 1z249z5z3 <= 0
x249x217x3 - 1z249z217z3 <= 0
x249x176x3 - 1z249z176z3 <= 0
x249x254x3 - 1z249z254z3 <= 0
x249x210x3 - 2z249z210z3 <= 0
x249x255x3 - 1z249z255z3 <= 0
x249x111x3 - 1z249z111z3 <= 0
x249x56x3 - 2z249z56z3 <= 0
x249x0x3 <= 2
x44x5x1 - 1z44z5z1 <= 0
x44x61x2 - 2z44z61z2 <= 0
x44x134x1 - 2z44z134z1 <= 0
x44x238x1 - 2z44z238z1 <= 0
x44x217x2 - 1z44z217z2 <= 0
x44x176x2 - 1z44z176z2 <= 0
x44x20x2 - 2z44z20z2 <= 0
x44x254x2 - 1z44z254z2 <= 0
x44x255x1 - 1z44z255z1 <= 0
x44x111x2 - 1z44z111z2 <= 0
x44x233x1 - 1z44z233z1 <= 0
x44x233x2 - 1z44z233z2 <= 0
x44x0x1 <= 1
x44x0x2 <= 1
x125x5x3 - 1z125z5z3 <= 0
x125x217x3 - 1z125z217z3 <= 0
x125x176x3 - 1z125z176z3 <= 0
x125x254x3 - 1z125z254z3 <= 0
x125x210x3 - 2z125z210z3 <= 0
x125x255x3 - 1z125z255z3 <= 0
x125x111x3 - 1z125z111z3 <= 0
x125x56x3 - 2z125z56z3 <= 0
x125x0x3 <= 2
x5x134x1 - 2z5z134z1 <= 0
x5x238x1 - 2z5z238z1 <= 0
x5x217x3 - 1z5z217z3 <= 0
x5x176x3 - 1z5z176z3 <= 0
x5x254x3 - 1z5z254z3 <= 0
x5x210x3 - 2z5z210z3 <= 0
x5x255x1 - 1z5z255z1 <= 0
x5x255x3 - 1z5z255z3 <= 0
x5x111x3 - 1z5z111z3 <= 0
x5x56x3 - 2z5z56z3 <= 0
x5x233x1 - 1z5z233z1 <= 0
x5x0x1 <= 1
x5x0x3 <= 1
x61x176x2 - 1z61z176z2 <= 0
x61x20x2 - 2z61z20z2 <= 0
x61x254x2 - 1z61z254z2 <= 0
x61x111x2 - 1z61z111z2 <= 0
x61x233x2 - 1z61z233z2 <= 0
x61x0x2 <= 2
x134x255x1 - 1z134z255z1 <= 0
x134x233x1 - 1z134z233z1 <= 0
x134x0x1 <= 2
x238x255x1 - 1z238z255z1 <= 0
x238x233x1 - 1z238z233z1 <= 0
x238x0x1 <= 2
x217x254x2 - 1z217z254z2 <= 0
x217x254x3 - 1z217z254z3 <= 0
x217x210x3 - 2z217z210z3 <= 0
x217x255x3 - 1z217z255z3 <= 0
x217x111x2 - 1z217z111z2 <= 0
x217x111x3 - 1z217z111z3 <= 0
x217x56x3 - 2z217z56z3 <= 0
x217x233x2 - 1z217z233z2 <= 0
x217x0x2 <= 1
x217x0x3 <= 1
x176x210x3 - 2z176z210z3 <= 0
x176x56x3 - 2z176z56z3 <= 0
x176x233x2 - 1z176z233z2 <= 0
x176x0x2 <= 1
x176x0x3 <= 1
x20x111x2 - 1z20z111z2 <= 0
x20x233x2 - 1z20z233z2 <= 0
x20x0x2 <= 2
x254x255x3 - 1z254z255z3 <= 0
x254x111x2 - 1z254z111z2 <= 0
x254x111x3 - 1z254z111z3 <= 0
x254x0x2 <= 1
x254x0x3 <= 1
x210x0x3 <= 2
x255x0x1 <= 1
x255x0x3 <= 1
x111x0x2 <= 1
x111x0x3 <= 1
x56x0x3 <= 2
x233x0x1 <= 1
x233x0x2 <= 1

Bounds
s26 = 6.358534
s53 = 6.455047
s148 = 6.464496
s159 = 6.615545
s276 = 6.323248
s48 = 6.655939
s57 = 7.221687
s129 = 7.228432
s172 = 6.605123
s100 = 7.264646
s175 = 7.242161
s122 = 5.980900
s95 = 5.782540
s38 = 4.939700
6.470000 <= s8 <= 7.470000
6.480000 <= s158 <= 7.480000
6.480000 <= s249 <= 7.480000
6.530000 <= s44 <= 7.530000
6.790000 <= s125 <= 7.790000
6.890000 <= s5 <= 7.890000
6.950000 <= s61 <= 7.950000
7.150000 <= s134 <= 8.150000
7.160000 <= s238 <= 8.160000
7.230000 <= s217 <= 8.230000
7.460000 <= s176 <= 8.460000
7.500000 <= s20 <= 8.500000
7.540000 <= s254 <= 8.540000
7.720000 <= s210 <= 8.720000
7.720000 <= s255 <= 8.720000
7.740000 <= s111 <= 8.740000
7.760000 <= s56 <= 8.760000
7.820000 <= s233 <= 8.820000

General
x26x125x3 x26x5x3 x26x217x3 x26x176x3 x26x254x3 x26x210x3 x26x255x3 x26x111x3 x26x56x3 
x53x134x1 x53x238x1 x53x255x1 x53x233x1 
x148x125x3 x148x5x1 x148x5x3 x148x134x1 x148x238x1 x148x217x3 x148x176x3 x148x254x3 x148x210x3 x148x255x1 x148x255x3 x148x111x3 x148x56x3 x148x233x1 
x159x134x1 x159x238x1 x159x217x3 x159x176x3 x159x254x3 x159x210x3 x159x255x1 x159x255x3 x159x111x3 x159x56x3 x159x233x1 
x276x44x2 x276x125x3 x276x5x3 x276x61x2 x276x217x2 x276x217x3 x276x176x2 x276x176x3 x276x20x2 x276x254x2 x276x254x3 x276x210x3 x276x255x3 x276x111x2 x276x111x3 x276x56x3 x276x233x2 
x48x217x2 x48x176x2 x48x20x2 x48x254x2 x48x111x2 x48x233x2 
x57x254x2 x57x254x3 x57x210x3 x57x255x3 x57x111x2 x57x111x3 x57x56x3 x57x233x2 
x129x254x2 x129x111x2 x129x233x2 
x172x125x3 x172x5x1 x172x5x3 x172x134x1 x172x238x1 x172x217x3 x172x176x3 x172x254x3 x172x210x3 x172x255x1 x172x255x3 x172x111x3 x172x56x3 x172x233x1 
x100x254x2 x100x111x2 x100x233x2 
x175x254x2 x175x254x3 x175x210x3 x175x255x3 x175x111x2 x175x111x3 x175x56x3 x175x233x2 
x122x158x3 x122x249x3 x122x44x1 x122x125x3 x122x5x1 x122x5x3 x122x134x1 x122x238x1 x122x217x3 x122x176x3 x122x254x3 x122x210x3 x122x255x1 x122x255x3 x122x111x3 x122x56x3 x122x233x1 
x95x44x1 x95x5x1 x95x134x1 x95x238x1 x95x255x1 x95x233x1 
x38x44x1 x38x5x1 x38x134x1 x38x238x1 x38x255x1 x38x233x1 
x8x44x2 x8x61x2 x8x217x2 x8x176x2 x8x20x2 x8x254x2 x8x111x2 x8x233x2 x8x0x2 
x158x125x3 x158x5x3 x158x61x2 x158x217x2 x158x217x3 x158x176x2 x158x176x3 x158x20x2 x158x254x2 x158x254x3 x158x210x3 x158x255x3 x158x111x2 x158x111x3 x158x56x3 x158x233x2 x158x0x2 x158x0x3 
x249x125x3 x249x5x3 x249x217x3 x249x176x3 x249x254x3 x249x210x3 x249x255x3 x249x111x3 x249x56x3 x249x0x3 
x44x5x1 x44x61x2 x44x134x1 x44x238x1 x44x217x2 x44x176x2 x44x20x2 x44x254x2 x44x255x1 x44x111x2 x44x233x1 x44x233x2 x44x0x1 x44x0x2 
x125x5x3 x125x217x3 x125x176x3 x125x254x3 x125x210x3 x125x255x3 x125x111x3 x125x56x3 x125x0x3 
x5x134x1 x5x238x1 x5x217x3 x5x176x3 x5x254x3 x5x210x3 x5x255x1 x5x255x3 x5x111x3 x5x56x3 x5x233x1 x5x0x1 x5x0x3 
x61x176x2 x61x20x2 x61x254x2 x61x111x2 x61x233x2 x61x0x2 
x134x255x1 x134x233x1 x134x0x1 
x238x255x1 x238x233x1 x238x0x1 
x217x254x2 x217x254x3 x217x210x3 x217x255x3 x217x111x2 x217x111x3 x217x56x3 x217x233x2 x217x0x2 x217x0x3 
x176x210x3 x176x56x3 x176x233x2 x176x0x2 x176x0x3 
x20x111x2 x20x233x2 x20x0x2 
x254x255x3 x254x111x2 x254x111x3 x254x0x2 x254x0x3 
x210x0x3 
x255x0x1 x255x0x3 
x111x0x2 x111x0x3 
x56x0x3 
x233x0x1 x233x0x2 

Binaries
y8 y158 y249 y44 y125 y5 y61 y134 y238 y217 y176 y20 y254 y210 y255 y111 y56 y233 
z26z125z3 z26z5z3 z26z217z3 z26z176z3 z26z254z3 z26z210z3 z26z255z3 z26z111z3 z26z56z3 
z53z134z1 z53z238z1 z53z255z1 z53z233z1 
z148z125z3 z148z5z1 z148z5z3 z148z134z1 z148z238z1 z148z217z3 z148z176z3 z148z254z3 z148z210z3 z148z255z1 z148z255z3 z148z111z3 z148z56z3 z148z233z1 
z159z134z1 z159z238z1 z159z217z3 z159z176z3 z159z254z3 z159z210z3 z159z255z1 z159z255z3 z159z111z3 z159z56z3 z159z233z1 
z276z44z2 z276z125z3 z276z5z3 z276z61z2 z276z217z2 z276z217z3 z276z176z2 z276z176z3 z276z20z2 z276z254z2 z276z254z3 z276z210z3 z276z255z3 z276z111z2 z276z111z3 z276z56z3 z276z233z2 
z48z217z2 z48z176z2 z48z20z2 z48z254z2 z48z111z2 z48z233z2 
z57z254z2 z57z254z3 z57z210z3 z57z255z3 z57z111z2 z57z111z3 z57z56z3 z57z233z2 
z129z254z2 z129z111z2 z129z233z2 
z172z125z3 z172z5z1 z172z5z3 z172z134z1 z172z238z1 z172z217z3 z172z176z3 z172z254z3 z172z210z3 z172z255z1 z172z255z3 z172z111z3 z172z56z3 z172z233z1 
z100z254z2 z100z111z2 z100z233z2 
z175z254z2 z175z254z3 z175z210z3 z175z255z3 z175z111z2 z175z111z3 z175z56z3 z175z233z2 
z122z158z3 z122z249z3 z122z44z1 z122z125z3 z122z5z1 z122z5z3 z122z134z1 z122z238z1 z122z217z3 z122z176z3 z122z254z3 z122z210z3 z122z255z1 z122z255z3 z122z111z3 z122z56z3 z122z233z1 
z95z44z1 z95z5z1 z95z134z1 z95z238z1 z95z255z1 z95z233z1 
z38z44z1 z38z5z1 z38z134z1 z38z238z1 z38z255z1 z38z233z1 
z8z44z2 z8z61z2 z8z217z2 z8z176z2 z8z20z2 z8z254z2 z8z111z2 z8z233z2 
z158z125z3 z158z5z3 z158z61z2 z158z217z2 z158z217z3 z158z176z2 z158z176z3 z158z20z2 z158z254z2 z158z254z3 z158z210z3 z158z255z3 z158z111z2 z158z111z3 z158z56z3 z158z233z2 
z249z125z3 z249z5z3 z249z217z3 z249z176z3 z249z254z3 z249z210z3 z249z255z3 z249z111z3 z249z56z3 
z44z5z1 z44z61z2 z44z134z1 z44z238z1 z44z217z2 z44z176z2 z44z20z2 z44z254z2 z44z255z1 z44z111z2 z44z233z1 z44z233z2 
z125z5z3 z125z217z3 z125z176z3 z125z254z3 z125z210z3 z125z255z3 z125z111z3 z125z56z3 
z5z134z1 z5z238z1 z5z217z3 z5z176z3 z5z254z3 z5z210z3 z5z255z1 z5z255z3 z5z111z3 z5z56z3 z5z233z1 
z61z176z2 z61z20z2 z61z254z2 z61z111z2 z61z233z2 
z134z255z1 z134z233z1 
z238z255z1 z238z233z1 
z217z254z2 z217z254z3 z217z210z3 z217z255z3 z217z111z2 z217z111z3 z217z56z3 z217z233z2 
z176z210z3 z176z56z3 z176z233z2 
z20z111z2 z20z233z2 
z254z255z3 z254z111z2 z254z111z3 






End